(set-logic ALL)
(declare-fun var0 () String)
(assert (str.in_re var0 (re.++ (re.* (re.+ (str.to_re "0"))) (re.++ (re.union (re.+ (str.to_re "11")) (re.+ (str.to_re "222"))) (re.++ (re.* (re.+ (str.to_re "33"))) (re.++ (re.* (re.union (str.to_re "4") (str.to_re "555"))) (re.++ (re.+ (re.union (str.to_re "6") (str.to_re "77"))) (re.++ (re.union (re.union (str.to_re "8") (str.to_re "999")) (re.union (str.to_re "aaa") (str.to_re "b"))) (re.++ (re.* (re.+ (str.to_re "cc"))) (re.++ (re.union (re.union (str.to_re "ddd") (str.to_re "eee")) (re.union (str.to_re "fff") (str.to_re "g"))) (re.++ (re.* (re.+ (str.to_re "h"))) (re.++ (re.union (re.union (str.to_re "i") (str.to_re "j")) (re.union (str.to_re "kk") (str.to_re "lll"))) (re.++ (re.* (re.union (str.to_re "mmm") (str.to_re "n"))) (re.++ (re.+ (re.* (str.to_re "oo"))) (re.++ (re.* (re.* (str.to_re "p"))) (re.++ (re.* (re.* (str.to_re "q"))) (re.++ (re.+ (re.union (str.to_re "rrr") (str.to_re "s"))) (re.++ (re.union (re.* (str.to_re "ttt")) (re.* (str.to_re "uuu"))) (re.++ (re.union (re.* (str.to_re "vv")) (re.* (str.to_re "ww"))) (re.++ (re.* (re.+ (str.to_re "xx"))) (re.++ (re.union (re.+ (str.to_re "yy")) (re.+ (str.to_re "zz"))) (re.++ (re.union (re.* (str.to_re "AA")) (re.* (str.to_re "BB"))) (re.++ (re.union (re.* (str.to_re "CC")) (re.* (str.to_re "DDD"))) (re.++ (re.+ (re.union (str.to_re "EEE") (str.to_re "FF"))) (re.++ (re.* (re.* (str.to_re "GGG"))) (re.++ (re.* (re.union (str.to_re "HHH") (str.to_re "III"))) (re.++ (re.* (re.+ (str.to_re "JJJ"))) (re.++ (re.* (re.+ (str.to_re "K"))) (re.++ (re.* (re.* (str.to_re "LL"))) (re.++ (re.* (re.union (str.to_re "MMM") (str.to_re "N"))) (re.++ (re.union (re.* (str.to_re "OOO")) (re.* (str.to_re "PP"))) (re.++ (re.union (re.* (str.to_re "QQQ")) (re.* (str.to_re "RRR"))) (re.++ (re.+ (re.+ (str.to_re "S"))) (re.++ (re.+ (re.+ (str.to_re "TT"))) (re.++ (re.union (re.* (str.to_re "UUU")) (re.* (str.to_re "V"))) (re.++ (re.union (re.union (str.to_re "WWW") (str.to_re "XX")) (re.union (str.to_re "YY") (str.to_re "ZZ"))) (re.++ (re.+ (re.* (str.to_re "!"))) (re.++ (re.union (re.* (str.to_re """""""")) (re.* (str.to_re "##"))) (re.++ (re.* (re.+ (str.to_re "$$"))) (re.++ (re.+ (re.union (str.to_re "%%") (str.to_re "&"))) (re.++ (re.+ (re.* (str.to_re "'"))) (re.++ (re.union (re.+ (str.to_re "((")) (re.+ (str.to_re ")))"))) (re.++ (re.* (re.* (str.to_re "*"))) (re.++ (re.* (re.+ (str.to_re "+++"))) (re.++ (re.union (re.+ (str.to_re ",,,")) (re.+ (str.to_re "--"))) (re.++ (re.union (re.union (str.to_re "..") (str.to_re "/")) (re.union (str.to_re "::") (str.to_re ";;;"))) (re.++ (re.union (re.+ (str.to_re "<<")) (re.+ (str.to_re "==="))) (re.++ (re.+ (re.union (str.to_re ">") (str.to_re "??"))) (re.++ (re.union (re.union (str.to_re "@@") (str.to_re "[[[")) (re.union (str.to_re "\\\\") (str.to_re "]"))) (re.++ (re.+ (re.+ (str.to_re "^"))) (re.++ (re.union (re.+ (str.to_re "_")) (re.+ (str.to_re "``"))) (re.++ (re.* (re.+ (str.to_re "{{{"))) (re.++ (re.* (re.* (str.to_re "|||"))) (re.++ (re.+ (re.+ (str.to_re "}"))) (re.++ (re.* (re.* (str.to_re "~"))) (re.++ (re.union (re.* (str.to_re "00")) (re.* (str.to_re "11"))) (re.++ (re.union (re.union (str.to_re "222") (str.to_re "333")) (re.union (str.to_re "44") (str.to_re "555"))) (re.++ (re.union (re.union (str.to_re "66") (str.to_re "777")) (re.union (str.to_re "88") (str.to_re "99"))) (re.++ (re.* (re.* (str.to_re "aa"))) (re.++ (re.* (re.* (str.to_re "bb"))) (re.++ (re.+ (re.+ (str.to_re "ccc"))) (re.++ (re.* (re.* (str.to_re "ddd"))) (re.++ (re.+ (re.union (str.to_re "ee") (str.to_re "fff"))) (re.++ (re.* (re.union (str.to_re "gg") (str.to_re "h"))) (re.++ (re.* (re.* (str.to_re "i"))) (re.++ (re.* (re.union (str.to_re "jj") (str.to_re "kkk"))) (re.++ (re.union (re.+ (str.to_re "l")) (re.+ (str.to_re "mmm"))) (re.++ (re.union (re.* (str.to_re "nnn")) (re.* (str.to_re "oo"))) (re.++ (re.* (re.+ (str.to_re "ppp"))) (re.++ (re.union (re.union (str.to_re "qq") (str.to_re "rrr")) (re.union (str.to_re "ss") (str.to_re "ttt"))) (re.++ (re.union (re.* (str.to_re "u")) (re.* (str.to_re "v"))) (re.++ (re.union (re.union (str.to_re "ww") (str.to_re "xxx")) (re.union (str.to_re "y") (str.to_re "z"))) (re.++ (re.* (re.union (str.to_re "AAA") (str.to_re "B"))) (re.++ (re.union (re.union (str.to_re "C") (str.to_re "DDD")) (re.union (str.to_re "EEE") (str.to_re "FFF"))) (re.++ (re.* (re.union (str.to_re "GGG") (str.to_re "H"))) (re.++ (re.+ (re.+ (str.to_re "II"))) (re.++ (re.* (re.+ (str.to_re "J"))) (re.++ (re.union (re.+ (str.to_re "KK")) (re.+ (str.to_re "LL"))) (re.++ (re.* (re.union (str.to_re "MMM") (str.to_re "NNN"))) (re.++ (re.* (re.+ (str.to_re "O"))) (re.++ (re.* (re.union (str.to_re "PPP") (str.to_re "QQ"))) (re.++ (re.+ (re.union (str.to_re "RRR") (str.to_re "S"))) (re.++ (re.+ (re.* (str.to_re "TTT"))) (re.++ (re.union (re.* (str.to_re "UU")) (re.* (str.to_re "VVV"))) (re.++ (re.* (re.* (str.to_re "WW"))) (re.++ (re.union (re.* (str.to_re "X")) (re.* (str.to_re "YYY"))) (re.++ (re.+ (re.union (str.to_re "ZZ") (str.to_re "!"))) (re.++ (re.* (re.+ (str.to_re """"))) (re.++ (re.* (re.union (str.to_re "##") (str.to_re "$$"))) (re.++ (re.union (re.+ (str.to_re "%%")) (re.+ (str.to_re "&&&"))) (re.++ (re.+ (re.+ (str.to_re "'''"))) (re.++ (re.* (re.* (str.to_re "((("))) (re.++ (re.union (re.+ (str.to_re "))")) (re.+ (str.to_re "**"))) (re.++ (re.union (re.+ (str.to_re "+++")) (re.+ (str.to_re ",,"))) (re.++ (re.+ (re.* (str.to_re "-"))) (re.++ (re.union (re.union (str.to_re ".") (str.to_re "///")) (re.union (str.to_re ":") (str.to_re ";;"))) (re.++ (re.union (re.* (str.to_re "<<")) (re.* (str.to_re "=="))) (re.++ (re.* (re.* (str.to_re ">>>"))) (re.++ (re.+ (re.+ (str.to_re "?"))) (re.++ (re.union (re.+ (str.to_re "@@")) (re.+ (str.to_re "[["))) (re.++ (re.* (re.+ (str.to_re "\\"))) (re.++ (re.union (re.union (str.to_re "]]]") (str.to_re "^^^")) (re.union (str.to_re "___") (str.to_re "`"))) (re.++ (re.+ (re.* (str.to_re "{{"))) (re.++ (re.+ (re.* (str.to_re "|"))) (re.++ (re.* (re.union (str.to_re "}}}") (str.to_re "~~"))) (re.++ (re.+ (re.union (str.to_re "00") (str.to_re "1"))) (re.++ (re.union (re.+ (str.to_re "22")) (re.+ (str.to_re "333"))) (re.++ (re.+ (re.+ (str.to_re "444"))) (re.++ (re.union (re.* (str.to_re "55")) (re.* (str.to_re "6"))) (re.++ (re.union (re.+ (str.to_re "7")) (re.+ (str.to_re "88"))) (re.++ (re.* (re.* (str.to_re "999"))) (re.++ (re.* (re.* (str.to_re "a"))) (re.++ (re.union (re.+ (str.to_re "bb")) (re.+ (str.to_re "cc"))) (re.++ (re.union (re.union (str.to_re "dd") (str.to_re "e")) (re.union (str.to_re "fff") (str.to_re "gg"))) (re.++ (re.+ (re.+ (str.to_re "hh"))) (re.++ (re.+ (re.union (str.to_re "iii") (str.to_re "j"))) (re.++ (re.* (re.union (str.to_re "kk") (str.to_re "lll"))) (re.++ (re.+ (re.* (str.to_re "mm"))) (re.++ (re.+ (re.union (str.to_re "nnn") (str.to_re "ooo"))) (re.++ (re.union (re.union (str.to_re "ppp") (str.to_re "q")) (re.union (str.to_re "rrr") (str.to_re "ss"))) (re.++ (re.+ (re.+ (str.to_re "tt"))) (re.++ (re.union (re.+ (str.to_re "uuu")) (re.+ (str.to_re "v"))) (re.++ (re.+ (re.* (str.to_re "www"))) (re.++ (re.union (re.+ (str.to_re "xx")) (re.+ (str.to_re "y"))) (re.++ (re.union (re.+ (str.to_re "zzz")) (re.+ (str.to_re "A"))) (re.++ (re.+ (re.union (str.to_re "BBB") (str.to_re "C"))) (re.++ (re.* (re.* (str.to_re "DDD"))) (re.++ (re.* (re.+ (str.to_re "E"))) (re.++ (re.* (re.union (str.to_re "F") (str.to_re "G"))) (re.++ (re.* (re.union (str.to_re "HHH") (str.to_re "I"))) (re.++ (re.+ (re.union (str.to_re "J") (str.to_re "KKK"))) (re.++ (re.union (re.+ (str.to_re "LLL")) (re.+ (str.to_re "MMM"))) (re.++ (re.+ (re.* (str.to_re "NN"))) (re.++ (re.+ (re.union (str.to_re "O") (str.to_re "P"))) (re.++ (re.union (re.union (str.to_re "Q") (str.to_re "RRR")) (re.union (str.to_re "SSS") (str.to_re "TT"))) (re.++ (re.+ (re.+ (str.to_re "UUU"))) (re.++ (re.+ (re.+ (str.to_re "V"))) (re.++ (re.+ (re.* (str.to_re "WWW"))) (re.++ (re.* (re.* (str.to_re "X"))) (re.++ (re.* (re.union (str.to_re "YY") (str.to_re "ZZ"))) (re.++ (re.* (re.union (str.to_re "!!") (str.to_re """"))) (re.++ (re.+ (re.union (str.to_re "###") (str.to_re "$"))) (re.++ (re.union (re.* (str.to_re "%%")) (re.* (str.to_re "&&&"))) (re.++ (re.+ (re.+ (str.to_re "''"))) (re.++ (re.union (re.+ (str.to_re "(((")) (re.+ (str.to_re "))"))) (re.++ (re.* (re.+ (str.to_re "***"))) (re.++ (re.* (re.* (str.to_re "++"))) (re.++ (re.union (re.* (str.to_re ",,")) (re.* (str.to_re "--"))) (re.++ (re.union (re.+ (str.to_re ".")) (re.+ (str.to_re "///"))) (re.++ (re.* (re.+ (str.to_re ":"))) (re.++ (re.+ (re.* (str.to_re ";"))) (re.++ (re.union (re.+ (str.to_re "<<<")) (re.+ (str.to_re "="))) (re.++ (re.* (re.union (str.to_re ">>") (str.to_re "??"))) (re.++ (re.* (re.union (str.to_re "@@@") (str.to_re "[[["))) (re.++ (re.union (re.* (str.to_re "\\\\\\")) (re.* (str.to_re "]"))) (re.++ (re.+ (re.union (str.to_re "^") (str.to_re "___"))) (re.++ (re.* (re.* (str.to_re "``"))) (re.++ (re.union (re.union (str.to_re "{{{") (str.to_re "|||")) (re.union (str.to_re "}") (str.to_re "~~~"))) (re.++ (re.+ (re.+ (str.to_re "0"))) (re.++ (re.union (re.+ (str.to_re "1")) (re.+ (str.to_re "22"))) (re.++ (re.* (re.* (str.to_re "33"))) (re.++ (re.union (re.union (str.to_re "44") (str.to_re "55")) (re.union (str.to_re "66") (str.to_re "77"))) (re.++ (re.* (re.union (str.to_re "888") (str.to_re "99"))) (re.++ (re.* (re.+ (str.to_re "aaa"))) (re.++ (re.union (re.union (str.to_re "b") (str.to_re "c")) (re.union (str.to_re "ddd") (str.to_re "e"))) (re.++ (re.* (re.union (str.to_re "f") (str.to_re "g"))) (re.++ (re.* (re.union (str.to_re "h") (str.to_re "ii"))) (re.++ (re.union (re.* (str.to_re "jj")) (re.* (str.to_re "kk"))) (re.++ (re.* (re.* (str.to_re "l"))) (re.++ (re.* (re.union (str.to_re "mmm") (str.to_re "nn"))) (re.union (re.union (str.to_re "ooo") (str.to_re "ppp")) (re.union (str.to_re "qq") (str.to_re "r")))))))))))))))))))))))))))))))))))))))))))))))))))))))))))))))))))))))))))))))))))))))))))))))))))))))))))))))))))))))))))))))))))))))))))))))))))))))))))))))))))))))))))))
(check-sat)